(set-logic emptyCC)
(set-info :status unsat)
(declare-fun a () Term)
(declare-fun b () Term)
(declare-fun d () Term)
(declare-fun f (Term) Term)
(assert (and (and (= b d) (= (f b) d)) (and (= (f d) a) (not (= a b)))))
(check-sat)
(exit)